c 
c MolecularSimulation 0.9.3
c Simulation written: Jan 13 2012 -- 15:17:57
c Test: Lipton
c Input: ./data/testCNF/SWEEP_R9_K3_N20_M164_S002.cnf
c 
s UNSATISFIABLE
v 0
c algorithmTime:  155
c solutionMemory: 0
c mixCount:       678
c extractCount:   492
c appendCount:    40
c splitCount:     20
c spliceCount:    0
c purifyCount:    165
c 
